p cnf 54 40
d 0.875 0.125
d 0.875 0.125
d 0.875 0.125
d 0.875 0.125
d 0.875 0.125
d 0.875 0.125
d 0.875 0.125
d 0.875 0.125
d 0.875 0.125
d 0.875 0.125
d 0.875 0.125
d 0.875 0.125
d 0.875 0.125
d 0.875 0.125
d 0.875 0.125
d 0.875 0.125
d 0.875 0.125
d 0.875 0.125
d 0.875 0.125
51
-42
41 -48 -0
48 -41 -0
53 -42 -2
42 -53 -2
52 -39 -4
39 -52 -4
46 -49 -6
49 -46 -6
47 -46 -8
46 -47 -8
44 -45 -10
45 -44 -10
38 -47 -12
47 -38 -12
40 -39 -14
39 -40 -14
53 -46 -16
46 -53 -16
41 -38 -18
38 -41 -18
41 -38 -20
38 -41 -20
48 -52 -22
52 -48 -22
38 -50 -24
50 -38 -24
41 -51 -26
51 -41 -26
43 -48 -28
48 -43 -28
47 -39 -30
39 -47 -30
38 -44 -32
44 -38 -32
41 -43 -34
43 -41 -34
45 -52 -36
52 -45 -36